c Random 7-CNF over 30 variables and 90 clauses
c Generated with `cnfgen`
c (C) 2012-2016 Massimo Lauria <lauria.massimo@gmail.com>
c https://massimolauria.github.io/cnfgen
c
c COMMAND LINE: cnfgen --output tmp-7-30-90.dimacs --output-format dimacs randkcnf 7 30 90
c
c sdimacs generated by gen-sdimacs
c
p cnf 30 90
r 0.5 1 2 3 4 5 6 7 8 9 10 11 12 13 14 15 0
e  16 17 18 19 20 21 22 23 24 25 26 27 28 29 30 0
-11 12 -15 -16 -21 24 27 0
-6 -8 -23 -24 -25 26 -28 0
2 3 10 -12 16 -23 -25 0
-1 7 -19 22 23 24 -27 0
-1 9 -11 -12 -15 16 26 0
5 12 13 -14 -17 -21 -23 0
-4 -7 12 -17 -22 25 27 0
-2 3 4 14 15 16 -23 0
-9 11 19 20 23 24 28 0
-3 -4 -6 -8 24 -26 -27 0
9 10 -13 -19 21 -26 -30 0
-2 -7 -9 10 18 20 28 0
-1 -2 10 13 -15 -17 -28 0
9 11 12 -14 -19 -21 29 0
5 7 8 -18 19 -26 27 0
-1 -10 -11 -17 22 -25 -27 0
-1 -9 10 15 17 26 -30 0
-7 9 14 -18 -20 26 -27 0
3 6 -8 12 -17 -21 -26 0
6 8 -14 17 19 22 25 0
-1 -2 -10 -22 24 -28 29 0
-2 -3 4 5 -13 -16 18 0
-3 -7 11 12 -18 -22 30 0
-2 5 6 -16 22 26 30 0
-1 -7 -10 12 -13 -24 -30 0
1 5 11 18 -21 -23 26 0
10 19 -23 -25 -27 29 -30 0
1 -4 -5 -9 -10 -11 14 0
-1 2 -5 6 -11 -13 28 0
3 7 8 9 22 27 30 0
1 4 7 9 -13 16 -17 0
-2 -5 -14 16 18 24 -25 0
-7 8 10 14 -15 22 -24 0
1 3 -16 18 -22 25 -27 0
-1 -3 7 10 -21 -23 30 0
-2 -8 9 11 16 21 -22 0
1 -2 -7 -14 -17 -23 25 0
2 -6 9 15 16 17 -29 0
3 9 16 -18 22 -25 -28 0
-2 6 -7 9 20 23 -24 0
5 9 11 -17 -21 -22 -26 0
-6 7 12 -20 -23 -26 30 0
2 6 9 -10 14 21 -28 0
-3 8 9 -13 20 24 -25 0
-1 2 -16 -19 21 24 -27 0
-1 9 -10 -11 12 13 -29 0
1 -2 -5 -6 -22 -24 -26 0
3 -4 9 10 18 -20 26 0
-6 7 -8 11 22 24 -25 0
2 -6 14 -15 16 21 -23 0
3 -7 9 14 19 27 -28 0
-3 -5 8 -9 15 -18 -30 0
-5 10 15 -20 -21 -25 28 0
4 8 -10 -14 -16 -26 30 0
6 8 -10 -20 -21 -25 29 0
1 7 -13 18 21 -24 28 0
5 6 18 24 -27 29 -30 0
-11 14 16 -20 21 27 28 0
-5 7 9 -10 -24 -27 -30 0
-3 9 11 18 -21 24 27 0
-2 -12 14 15 18 -20 -23 0
-7 -9 11 -18 20 -21 -23 0
-4 12 14 17 -23 24 25 0
-4 -7 -12 -21 -24 -27 28 0
2 -5 9 -22 23 -25 26 0
6 -16 21 -25 26 -29 30 0
-1 2 5 6 14 21 23 0
-4 -9 -11 20 22 25 28 0
-2 -9 -18 -22 -26 29 30 0
-4 -7 -9 10 13 15 -24 0
-4 5 12 14 -17 20 26 0
-16 17 18 -19 -24 -25 -28 0
1 4 8 -10 -19 23 25 0
2 8 -10 -15 -18 20 -24 0
-2 -14 15 20 -21 -22 26 0
2 -11 12 -13 19 -24 30 0
5 -9 17 18 21 -27 -29 0
9 -16 18 -19 -20 24 -29 0
-5 -12 -16 -22 24 27 -28 0
3 6 9 19 -24 25 28 0
4 -10 15 -16 17 -24 -26 0
-4 -15 -17 21 25 -27 -28 0
-2 14 -24 26 27 28 30 0
-7 -8 -12 16 -20 -23 -26 0
1 11 12 -16 17 -19 23 0
-8 15 -18 -22 23 25 -26 0
4 5 13 18 -23 24 -27 0
-1 -4 -8 -17 -21 -27 -29 0
8 -10 -11 14 20 22 23 0
-9 12 16 19 22 -24 29 0
